unsat
(:eliminated-vars     1
 :max-memory          18.02
 :memory              17.90
 :nlsat-conflicts     2
 :nlsat-learned-added 1
 :nlsat-propagations  7
 :nlsat-stages        2
 :num-allocs          5420
 :rlimit-count        1202
 :time                0.00)
